certificates/rado_a6_c224_N37.drat
-37 0
35 0
-21 0
19 0
23 0
-5 0
-33 0
-9 0
3 0
7 0
31 0
32 0
11 0
-17 0
0
